capacidades = [1000, 800, 400];
costos = [200, 100, 30];

n_clientes = 10;
n_dias = 5;

d = [|0, 0, 350, 200, 0|
       400, 100, 350, 200, 0|
      200, 500, 350, 100, 0|
      200, 150, 100, 150, 0|
      0, 200, 350, 20, 0|
      300, 200, 350, 15, 0|
      0, 0, 200, 150, 0|
      100, 50, 100, 100, 0|
      0, 0, 350, 50, 0|
      100, 0, 350, 100, 0|];
      
limit_dias = 4;
porcentaje = 0.9;
